12772.0
10, 23, 25, 27, 37, 53, 89, 135, 146, 192, 236, 245, 249, 262, 269, 302, 332, 334, 347, 349, 426, 446, 463, 473, 479, 573, 599, 603, 610, 612, 672, 683, 702, 703, 732, 751, 764, 770, 828, 835, 845, 855, 882, 935, 971, 973, 984, 1048, 1099, 1117, 1136, 1143, 1199, 1235, 1240, 1246, 1248, 1322, 1333, 1339, 1341, 1361, 1394, 1400, 1403, 1413, 1415, 1457, 1466, 1472, 1485, 1497, 1507, 1515, 1533, 1548, 1549, 1566, 1581, 1591, 1654, 1667, 1671, 1672, 1713, 1729, 1807, 1840, 1854, 1861, 1868, 1879, 1906, 1934, 1953, 1954, 1961, 1964, 1974, 1982, 1983, 1989, 1994